NAME          
ROWS
 L  R0
 L  R1
 L  R2
 L  R3
 L  R4
 L  R5
 N  R6
COLUMNS
    x         R0        -3
    x         R1        1
    x         R2        1
    x         R3        2
    x         R4        -2
    x         R6        -1
    y         R0        2
    y         R1        2
    y         R2        -1
    y         R3        4
    y         R5        1
    y         R6        -7
RHS
    rhs       R0        12
    rhs       R1        20
    rhs       R2        10
    rhs       R3        7
    rhs       R4        16
    rhs       R5        5
ENDATA
